25 62
18 25 1
18 26 1
14 14 5
6 23 2
9 28 4
7 27 2
8 27 4
6 26 2
8 22 2
9 16 2
9 32 2
11 16 1
10 16 1
10 15 2
11 15 1
14 15 1
9 15 6
13 14 2
7 32 6
13 16 1
15 32 2
16 32 2
9 27 2
15 18 4
8 15 4
50 100 
50 100 
50 100 
50 100 
50 100 
50 100 
50 100 
50 100 
50 100 
50 100 
50 100 
50 100 
50 100 
50 100 
50 100 
50 100 
50 100 
50 100 
50 100 
50 100 
50 100 
50 100 
50 100 
50 100 
50 100 
50 100 
50 100 
50 100 
50 100 
50 100 
50 100 
50 100 
50 100 
50 100 
50 100 
50 100 
50 100 
50 100 
50 100 
50 100 
50 100 
50 100 
50 100 
50 100 
50 100 
50 100 
50 100 
50 100 
50 100 
50 100 
50 100 
50 100 
50 100 
50 100 
50 100 
50 100 
50 100 
50 100 
50 100 
50 100 
50 100 
50 100 
